45458.96
37 4 35 36 34 31 33 32 5 30 27 6 25 28 29 26 24 23 22 7 20 21 18 17 19 8 16 15 14 11 13 12 10 9 58 55 59 56 54 57 61 60 62 63 64 65 69 68 66 67 70 71 73 76 77 72 75 74 78 81 80 83 79 82 85 88 89 86 84 87 90 93 92 95 91 94 97 100 101 96 98 99 102 105 104 0 106 103 1 52 53 51 50 2 47 48 49 46 45 3 42 40 43 44 41 39 38